Route #1: 7 34 2 23 43 42 44 24 17 
Route #2: 47 35 5 
Route #3: 27 11 32 26 19 25 50 18 
Route #4: 13 40 10 33 45 4 41 
Route #5: 46 30 6 37 38 21 16 14 28 
Route #6: 31 49 48 22 29 3 
Route #7: 9 36 20 15 12 39 8 
